RT is False
Default write of storage_offers_DA.csv just to have a file (but constraint should be inactive)
Reading model...
...model read.
creating competitive generators file...
...competitive generators recorded.
Loading data...
.. day-ahead data with real-time VRE data read.
Compiling instance...
...instance created.
Creating Offer Mitigation (model will solve as dispatch if TRUE)...
Solving...

Welcome to IBM(R) ILOG(R) CPLEX(R) Interactive Optimizer 12.9.0.0
  with Simplex, Mixed Integer & Barrier Optimizers
5725-A06 5725-A29 5724-Y48 5724-Y49 5724-Y54 5724-Y55 5655-Y21
Copyright IBM Corp. 1988, 2019.  All Rights Reserved.

Type 'help' for a list of available commands.
Type 'help' followed by a command name for more
information on commands.

CPLEX> Logfile 'cplex.log' closed.
Logfile 'C:\Users\llavin\Desktop\test919\logs\tmptp7k2zbn.cplex.log' open.
CPLEX> New value for parallel optimization mode: -1
CPLEX> New value for mixed integer optimality gap tolerance: 0.01
CPLEX> New value for integrality tolerance: 1e-09
CPLEX> New value for feasibility tolerance: 0.01
CPLEX> New value for deterministic time limit in ticks: 75000
CPLEX> Problem 'C:\Users\llavin\Desktop\test919\logs\tmpjkikws86.pyomo.lp' read.
Read time = 0.06 sec. (3.04 ticks)
CPLEX> Problem name         : C:\Users\llavin\Desktop\test919\logs\tmpjkikws86.pyomo.lp
Objective sense      : Minimize
Variables            :   26081  [Nneg: 1,  Box: 21616,  Free: 4464]
Objective nonzeros   :    2496
Linear constraints   :   27515  [Less: 14006,  Greater: 4416,  Equal: 9093]
  Nonzeros           :   89267
  RHS nonzeros       :   12248

Variables            : Min LB: -5000.000        Max UB: 1000000.       
Objective nonzeros   : Min   : 15.73158         Max   : 124.0997       
Linear constraints   :
  Nonzeros           : Min   : 0.8500000        Max   : 3000.000       
  RHS nonzeros       : Min   : 0.6916667        Max   : 5000.000       
CPLEX> CPXPARAM_Parallel                                -1
CPXPARAM_Simplex_Tolerances_Feasibility          0.01
CPXPARAM_DetTimeLimit                            75000
CPXPARAM_MIP_Tolerances_MIPGap                   0.01
CPXPARAM_MIP_Tolerances_Integrality              1.0000000000000001e-09
Parallel mode: opportunistic, using up to 32 threads for concurrent optimization.
Tried aggregator 1 time.
LP Presolve eliminated 21353 rows and 15464 columns.
Aggregator did 766 substitutions.
Reduced LP has 5396 rows, 9851 columns, and 31818 nonzeros.
Presolve time = 0.05 sec. (30.45 ticks)
Symmetry aggregator did 5565 additional substitutions.

Iteration log . . .
Iteration:     1   Dual objective     =             0.000000
Perturbation started.
Iteration:   101   Dual objective     =             0.000000
Iteration:   326   Dual objective     =             1.136890
Iteration:   588   Dual objective     =             1.737985
Iteration:   852   Dual objective     =             1.876279
Iteration:  1060   Dual objective     =             1.991154
Iteration:  1330   Dual objective     =             2.037600
Iteration:  1578   Dual objective     =             2.067374
Iteration:  1802   Dual objective     =             2.087083
Iteration:  2013   Dual objective     =             2.112614
Iteration:  2207   Dual objective     =             2.131271
Iteration:  2434   Dual objective     =          4763.320668
Iteration:  2715   Dual objective     =          9002.485968
Iteration:  3088   Dual objective     =         13539.824902
Removing perturbation.
Dual superbasis not built.
Using devex.

Primal simplex solved model.


Primal simplex - Optimal:  Objective =  1.3537669682e+04
Solution time =    0.17 sec.  Iterations = 1697 (1057)
Deterministic time = 79.34 ticks  (461.27 ticks/sec)

CPLEX> Solution written to file 'C:\Users\llavin\Desktop\test919\logs\tmpfazlx_d4.cplex.sol'.
CPLEX> Exporting results... 
...storage offer mitigation file created
Converting model to MPEC...
...converted
NOTE: initial MIP solve with only storage competitive to get feasible solution
Solving...

Welcome to IBM(R) ILOG(R) CPLEX(R) Interactive Optimizer 12.9.0.0
  with Simplex, Mixed Integer & Barrier Optimizers
5725-A06 5725-A29 5724-Y48 5724-Y49 5724-Y54 5724-Y55 5655-Y21
Copyright IBM Corp. 1988, 2019.  All Rights Reserved.

Type 'help' for a list of available commands.
Type 'help' followed by a command name for more
information on commands.

CPLEX> Logfile 'cplex.log' closed.
Logfile 'C:\Users\llavin\Desktop\test919\logs\tmpnsu0rfht.cplex.log' open.
CPLEX> New value for parallel optimization mode: -1
CPLEX> New value for mixed integer optimality gap tolerance: 0.01
CPLEX> New value for integrality tolerance: 1e-09
CPLEX> New value for feasibility tolerance: 0.01
CPLEX> New value for deterministic time limit in ticks: 75000
CPLEX> Problem 'C:\Users\llavin\Desktop\test919\logs\tmplxiogll3.pyomo.lp' read.
Read time = 0.23 sec. (14.78 ticks)
CPLEX> Problem name         : C:\Users\llavin\Desktop\test919\logs\tmplxiogll3.pyomo.lp
Objective sense      : Maximize
Variables            :   53805  [Nneg: 1,  Box: 22000,  Free: 4464,
                                 Binary: 27340]
Objective nonzeros   :    8957
Linear constraints   :  123205  [Less: 41346,  Greater: 59096,  Equal: 22763]
  Nonzeros           :  291778
  RHS nonzeros       :   67408

Variables            : Min LB: -5000.000        Max UB: 1000000.       
Objective nonzeros   : Min   : 0.6916667        Max   : 829.5083       
Linear constraints   :
  Nonzeros           : Min   : 0.6916667        Max   : 1000000.       
  RHS nonzeros       : Min   : 0.6916667        Max   : 1000000.       
CPLEX> CPXPARAM_Parallel                                -1
CPXPARAM_Simplex_Tolerances_Feasibility          0.01
CPXPARAM_DetTimeLimit                            75000
CPXPARAM_MIP_Tolerances_MIPGap                   0.01
CPXPARAM_MIP_Tolerances_Integrality              1.0000000000000001e-09
Tried aggregator 3 times.
MIP Presolve eliminated 88784 rows and 19069 columns.
MIP Presolve added 3361 rows and 0 columns.
MIP Presolve modified 24850 coefficients.
Aggregator did 13000 substitutions.
Reduced MIP has 24782 rows, 21165 columns, and 70736 nonzeros.
Reduced MIP has 8352 binaries, 0 generals, 0 SOSs, and 0 indicators.
Presolve time = 0.28 sec. (173.84 ticks)
Probing fixed 415 vars, tightened 2796 bounds.
Probing time = 1.33 sec. (899.34 ticks)
Tried aggregator 2 times.
MIP Presolve eliminated 933 rows and 832 columns.
MIP Presolve modified 2169 coefficients.
Aggregator did 35 substitutions.
Reduced MIP has 23814 rows, 20298 columns, and 67923 nonzeros.
Reduced MIP has 7937 binaries, 0 generals, 0 SOSs, and 0 indicators.
Presolve time = 0.09 sec. (68.75 ticks)
Probing time = 0.05 sec. (15.92 ticks)
Clique table members: 6267.
MIP emphasis: balance optimality and feasibility.
MIP search method: dynamic search.
Parallel mode: opportunistic, using up to 32 threads.
Root relaxation solution time = 0.38 sec. (284.99 ticks)

        Nodes                                         Cuts/
   Node  Left     Objective  IInf  Best Integer    Best Bound    ItCnt     Gap

      0     0     5043.8042  1625                   5043.8042     6249         
      0     0     5043.8042    13                    Cuts: 23     6258         
      0     0     5043.8042    13                    Cuts: 15     6261         
      0     0     5043.8042    12                     Cuts: 7     6262         
      0    14    infeasible                           Cuts: 2     6545         
Elapsed time = 8.52 sec. (5299.53 ticks, tree = 0.02 MB, solutions = 0)
*    89+   30                         4898.3137     4898.3137             0.00%

Cover cuts applied:  1
Implied bound cuts applied:  2
Flow cuts applied:  17
Mixed integer rounding cuts applied:  4
Gomory fractional cuts applied:  10

Root node processing (before b&c):
  Real time             =    7.52 sec. (5293.35 ticks)
Parallel b&c, 32 threads:
  Real time             =    1.59 sec. (165.64 ticks)
  Sync time (average)   =    0.68 sec.
  Wait time (average)   =    0.00 sec.
                          ------------
Total (root+branch&cut) =    9.11 sec. (5459.00 ticks)

Solution pool: 1 solution saved.

MIP - Integer optimal solution:  Objective =  4.8983136674e+03
Solution time =    9.14 sec.  Iterations = 7832  Nodes = 108
Deterministic time = 5459.15 ticks  (597.22 ticks/sec)

CPLEX> Incumbent solution written to file 'C:\Users\llavin\Desktop\test919\logs\tmp9xgcotqm.cplex.sol'.
CPLEX> NOTE: no warmstart specified for MIP iteration, default behavior is true
NOTE: resolving with all competitive generators using storage-only solution to warmstart
Solving...

Welcome to IBM(R) ILOG(R) CPLEX(R) Interactive Optimizer 12.9.0.0
  with Simplex, Mixed Integer & Barrier Optimizers
5725-A06 5725-A29 5724-Y48 5724-Y49 5724-Y54 5724-Y55 5655-Y21
Copyright IBM Corp. 1988, 2019.  All Rights Reserved.

Type 'help' for a list of available commands.
Type 'help' followed by a command name for more
information on commands.

CPLEX> Logfile 'cplex.log' closed.
Logfile 'C:\Users\llavin\Desktop\test919\logs\tmptn73st1b.cplex.log' open.
CPLEX> New value for parallel optimization mode: -1
CPLEX> New value for mixed integer optimality gap tolerance: 0.01
CPLEX> New value for integrality tolerance: 1e-09
CPLEX> New value for feasibility tolerance: 0.01
CPLEX> New value for deterministic time limit in ticks: 75000
CPLEX> Problem 'C:\Users\llavin\Desktop\test919\logs\tmpectw13wh.pyomo.lp' read.
Read time = 0.23 sec. (14.81 ticks)
CPLEX> MIP start file 'C:\Users\llavin\Desktop\test919\logs\tmp8lpxyw4k.cplex.mst' read.
CPLEX> Problem name         : C:\Users\llavin\Desktop\test919\logs\tmpectw13wh.pyomo.lp
Objective sense      : Maximize
Variables            :   54525  [Nneg: 1,  Box: 22720,  Free: 4464,
                                 Binary: 27340]
Objective nonzeros   :    9653
Linear constraints   :  123205  [Less: 41346,  Greater: 59096,  Equal: 22763]
  Nonzeros           :  291778
  RHS nonzeros       :   67408

Variables            : Min LB: -5000.000        Max UB: 1000000.       
Objective nonzeros   : Min   : 0.6916667        Max   : 787.6750       
Linear constraints   :
  Nonzeros           : Min   : 0.6916667        Max   : 1000000.       
  RHS nonzeros       : Min   : 0.6916667        Max   : 1000000.       
CPLEX> CPXPARAM_Parallel                                -1
CPXPARAM_Simplex_Tolerances_Feasibility          0.01
CPXPARAM_DetTimeLimit                            75000
CPXPARAM_MIP_Tolerances_MIPGap                   0.01
CPXPARAM_MIP_Tolerances_Integrality              1.0000000000000001e-09
Warning:  No solution found from 1 MIP starts.
Retaining values of one MIP start for possible repair.
Tried aggregator 3 times.
MIP Presolve eliminated 88784 rows and 19789 columns.
MIP Presolve added 3361 rows and 0 columns.
MIP Presolve modified 24850 coefficients.
Aggregator did 13000 substitutions.
Reduced MIP has 24782 rows, 21165 columns, and 70736 nonzeros.
Reduced MIP has 8352 binaries, 0 generals, 0 SOSs, and 0 indicators.
Presolve time = 0.28 sec. (174.20 ticks)
Probing fixed 415 vars, tightened 2796 bounds.
Probing time = 1.23 sec. (899.34 ticks)
Tried aggregator 2 times.
MIP Presolve eliminated 933 rows and 832 columns.
MIP Presolve modified 2169 coefficients.
Aggregator did 35 substitutions.
Reduced MIP has 23814 rows, 20298 columns, and 67923 nonzeros.
Reduced MIP has 7937 binaries, 0 generals, 0 SOSs, and 0 indicators.
Presolve time = 0.11 sec. (68.75 ticks)
Probing time = 0.05 sec. (15.92 ticks)
Clique table members: 6267.
MIP emphasis: balance optimality and feasibility.
MIP search method: dynamic search.
Parallel mode: opportunistic, using up to 32 threads.
Root relaxation solution time = 0.42 sec. (300.21 ticks)

        Nodes                                         Cuts/
   Node  Left     Objective  IInf  Best Integer    Best Bound    ItCnt     Gap

      0     0   108233.9971  1715                 108233.9971     6450         
      0     0   102464.9872   720                   Cuts: 540     6783         
      0     0   101785.6356   652                   Cuts: 246     6950         
      0     0   100732.9969   595                   Cuts: 155     7055         
      0     0   100732.9969   575                   Cuts: 117     7113         
      0     0   100732.9969   545                    Cuts: 84     7168         
      0     0   100732.9969   542                    Cuts: 77     7220         
      0     0   100732.9969   531                    Cuts: 85     7243         
      0     0    99117.9766   514                    Cuts: 41     7267         
      0     0    99117.9766   510                    Cuts: 37     7274         
Repair heuristic found nothing.
      0    23    65103.1401   467                    Cuts: 31     7594         
Elapsed time = 11.39 sec. (6667.64 ticks, tree = 0.02 MB, solutions = 0)
    426   128    53383.3525   459                  80905.1473    12027         
   1010   313    64364.5860   437                  80905.1473    28069         
   1756   421    54452.4989   403                  80905.1473    54631         
   2428   567    54865.5225   404                  80905.1473    68602         
   3102   749    infeasible                        80905.1473    77592         
   3729   835    25433.3695   400                  80905.1473    80419         
   4211  1171    46020.8885   391                  80905.1473    98995         
   4748  1310    30367.8922   380                  80905.1473   104029         
   5399  2024    17922.4101   347                  80905.1473   109334         
  10142  6119    33180.2366   378                  80905.1473   114561         
Elapsed time = 28.64 sec. (9771.73 ticks, tree = 324.57 MB, solutions = 0)
  14135  8903    31082.7111   407                  80905.1473   115225         
* 14452+ 3071                        36456.6517    80905.1473           121.92%
  16379  3327        cutoff          36456.6517    48201.4760   139897   32.22%

GUB cover cuts applied:  2
Clique cuts applied:  6
Cover cuts applied:  25
Implied bound cuts applied:  31
Flow cuts applied:  661
Mixed integer rounding cuts applied:  141
Gomory fractional cuts applied:  99

Root node processing (before b&c):
  Real time             =    9.67 sec. (6634.98 ticks)
Parallel b&c, 32 threads:
  Real time             =   39.41 sec. (11879.60 ticks)
  Sync time (average)   =    2.35 sec.
  Wait time (average)   =    0.25 sec.
                          ------------
Total (root+branch&cut) =   49.08 sec. (18514.58 ticks)

Solution pool: 4 solutions saved.

MIP - Integer optimal, tolerance (0.01/1e-06):  Objective =  3.6456651685e+04
Current MIP best bound =  3.6586886905e+04 (gap = 130.235, 0.36%)
Solution time =   49.11 sec.  Iterations = 140881  Nodes = 16454 (3)
Deterministic time = 18514.73 ticks  (377.01 ticks/sec)

CPLEX> Incumbent solution written to file 'C:\Users\llavin\Desktop\test919\logs\tmpi880xd1q.cplex.sol'.
CPLEX> Exporting results... 
